problems/csplib-prob015/SchursLemma-models/noch/O2/lingeling/model_1_2-3-14-solution000001.eprime-solution
language ESSENCE' 1.0

letting boxes_PartitionAsSet_ExplicitR6_ExplicitVarSizeWithDummy be
        [[1, 6, 9, 12, 15, 15, 15, 15, 15, 15, 15, 15, 15, 15; int(1..14)],
         [2, 3, 4, 13, 15, 15, 15, 15, 15, 15, 15, 15, 15, 15; int(1..14)],
         [5, 7, 8, 10, 11, 14, 15, 15, 15, 15, 15, 15, 15, 15; int(1..14)]; int(1..3)]
