problems/csplib-prob015/SchursLemma-models/noch/O2/lingeling/model_1_2-3-14-solution000001.solution
language Essence 1.3

letting boxes be partition({1, 6, 9, 12}, {2, 3, 4, 13}, {5, 7, 8, 10, 11, 14})
